NAME : mtspf
TYPE : ATSP
DIMENSION : 9
EDGE_WEIGHT_TYPE : EXPLICIT
EDGE_WEIGHT_FORMAT : FULL_MATRIX
EDGE_WEIGHT_SECTION
99999 12 16 31 23 46 0 0 0 
12 99999 4 19 19 44 0 0 0 
16 8 99999 19 23 48 0 0 0 
29 19 19 99999 18 29 0 0 0 
23 17 21 20 99999 27 0 0 0 
48 44 48 31 27 99999 0 0 0 
21 27 31 44 28 31 99999 0 0 
36 32 36 45 27 32 0 99999 0 
5 9 13 26 20 43 0 0 99999 
EOF
